Fe2
1.0
       56.9623184204         0.0000000000         0.0000000000
        0.0000000000        56.9623184204         0.0000000000
        0.0000000000         0.0000000000        56.9623184204
   Fe
16000
Direct
     0.000000000         0.000000000         0.000000000
     0.000000000         0.000000000         0.050000000
     0.000000000         0.000000000         0.100000000
     0.000000000         0.000000000         0.150000000
     0.000000000         0.000000000         0.200000000
    -0.000000000        -0.000000000         0.250000000
     0.000000000         0.000000000         0.300000000
    -0.000000000        -0.000000000         0.350000000
     0.000000000         0.000000000         0.400000000
    -0.000000000        -0.000000000         0.450000000
    -0.000000000        -0.000000000         0.500000000
     0.000000000         0.000000000         0.550000000
     0.000000000         0.000000000         0.600000000
    -0.000000000        -0.000000000         0.649999967
    -0.000000000        -0.000000000         0.700000000
    -0.000000000        -0.000000000         0.750000033
     0.000000000         0.000000000         0.800000000
     0.000000000         0.000000000         0.850000033
    -0.000000000        -0.000000000         0.900000000
    -0.000000000        -0.000000000         0.949999967
     0.000000000         0.050000000         0.000000000
     0.000000000         0.050000000         0.050000000
     0.000000000         0.050000000         0.100000000
     0.000000000         0.050000000         0.150000000
    -0.000000000         0.050000000         0.200000000
    -0.000000000         0.050000000         0.250000000
     0.000000000         0.050000000         0.300000000
    -0.000000000         0.050000000         0.350000000
    -0.000000000         0.050000000         0.400000000
    -0.000000000         0.050000000         0.450000000
     0.000000000         0.050000000         0.500000000
     0.000000000         0.050000000         0.550000000
     0.000000000         0.050000000         0.600000000
    -0.000000000         0.050000000         0.649999967
    -0.000000000         0.050000000         0.700000000
    -0.000000000         0.050000000         0.750000033
     0.000000000         0.050000000         0.800000000
     0.000000000         0.050000000         0.850000033
    -0.000000000         0.050000000         0.900000000
     0.000000000         0.050000000         0.949999967
     0.000000000         0.100000000         0.000000000
     0.000000000         0.100000000         0.050000000
     0.000000000         0.100000000         0.100000000
     0.000000000         0.100000000         0.150000000
     0.000000000         0.100000000         0.200000000
    -0.000000000         0.100000000         0.250000000
     0.000000000         0.100000000         0.300000000
    -0.000000000         0.100000000         0.350000000
    -0.000000000         0.100000000         0.400000000
    -0.000000000         0.100000000         0.450000000
    -0.000000000         0.100000000         0.500000000
     0.000000000         0.100000000         0.550000000
     0.000000000         0.100000000         0.600000000
    -0.000000000         0.100000000         0.649999967
    -0.000000000         0.100000000         0.700000000
    -0.000000000         0.100000000         0.750000033
    -0.000000000         0.100000000         0.800000000
    -0.000000000         0.100000000         0.850000033
    -0.000000000         0.100000000         0.900000000
     0.000000000         0.100000000         0.949999967
     0.000000000         0.150000000         0.000000000
     0.000000000         0.150000000         0.050000000
     0.000000000         0.150000000         0.100000000
     0.000000000         0.150000000         0.150000000
     0.000000000         0.150000000         0.200000000
     0.000000000         0.150000000         0.250000000
     0.000000000         0.150000000         0.300000000
    -0.000000000         0.150000000         0.350000000
     0.000000000         0.150000000         0.400000000
    -0.000000000         0.150000000         0.450000000
     0.000000000         0.150000000         0.500000000
     0.000000000         0.150000000         0.550000000
     0.000000000         0.150000000         0.600000000
    -0.000000000         0.150000000         0.649999967
    -0.000000000         0.150000000         0.700000000
    -0.000000000         0.150000000         0.750000033
     0.000000000         0.150000000         0.800000000
     0.000000000         0.150000000         0.850000033
    -0.000000000         0.150000000         0.900000000
     0.000000000         0.150000000         0.949999967
     0.000000000         0.200000000         0.000000000
    -0.000000000         0.200000000         0.050000000
     0.000000000         0.200000000         0.100000000
     0.000000000         0.200000000         0.150000000
     0.000000000         0.200000000         0.200000000
    -0.000000000         0.200000000         0.250000000
     0.000000000         0.200000000         0.300000000
     0.000000000         0.200000000         0.350000000
     0.000000000         0.200000000         0.400000000
    -0.000000000         0.200000000         0.450000000
    -0.000000000         0.200000000         0.500000000
    -0.000000000         0.200000000         0.550000000
     0.000000000         0.200000000         0.600000000
    -0.000000000         0.200000000         0.649999967
    -0.000000000         0.200000000         0.700000000
    -0.000000000         0.200000000         0.750000033
    -0.000000000         0.200000000         0.800000000
    -0.000000000         0.200000000         0.850000033
    -0.000000000         0.200000000         0.900000000
    -0.000000000         0.200000000         0.949999967
    -0.000000000         0.250000000         0.000000000
    -0.000000000         0.250000000         0.050000000
    -0.000000000         0.250000000         0.100000000
     0.000000000         0.250000000         0.150000000
    -0.000000000         0.250000000         0.200000000
    -0.000000000         0.250000000         0.250000000
     0.000000000         0.250000000         0.300000000
    -0.000000000         0.250000000         0.350000000
     0.000000000         0.250000000         0.400000000
    -0.000000000         0.250000000         0.450000000
    -0.000000000         0.250000000         0.500000000
     0.000000000         0.250000000         0.550000000
     0.000000000         0.250000000         0.600000000
    -0.000000000         0.250000000         0.649999967
    -0.000000000         0.250000000         0.700000000
    -0.000000000         0.250000000         0.750000033
     0.000000000         0.250000000         0.800000000
    -0.000000000         0.250000000         0.850000033
    -0.000000000         0.250000000         0.900000000
    -0.000000000         0.250000000         0.949999967
     0.000000000         0.300000000         0.000000000
     0.000000000         0.300000000         0.050000000
     0.000000000         0.300000000         0.100000000
     0.000000000         0.300000000         0.150000000
     0.000000000         0.300000000         0.200000000
     0.000000000         0.300000000         0.250000000
     0.000000000         0.300000000         0.300000000
     0.000000000         0.300000000         0.350000000
     0.000000000         0.300000000         0.400000000
    -0.000000000         0.300000000         0.450000000
     0.000000000         0.300000000         0.500000000
     0.000000000         0.300000000         0.550000000
     0.000000000         0.300000000         0.600000000
    -0.000000000         0.300000000         0.649999967
    -0.000000000         0.300000000         0.700000000
    -0.000000000         0.300000000         0.750000033
     0.000000000         0.300000000         0.800000000
     0.000000000         0.300000000         0.850000033
    -0.000000000         0.300000000         0.900000000
     0.000000000         0.300000000         0.949999967
    -0.000000000         0.350000000         0.000000000
    -0.000000000         0.350000000         0.050000000
    -0.000000000         0.350000000         0.100000000
    -0.000000000         0.350000000         0.150000000
     0.000000000         0.350000000         0.200000000
    -0.000000000         0.350000000         0.250000000
     0.000000000         0.350000000         0.300000000
    -0.000000000         0.350000000         0.350000000
    -0.000000000         0.350000000         0.400000000
    -0.000000000         0.350000000         0.450000000
    -0.000000000         0.350000000         0.500000000
    -0.000000000         0.350000000         0.550000000
     0.000000000         0.350000000         0.600000000
    -0.000000000         0.350000000         0.649999967
    -0.000000000         0.350000000         0.700000000
    -0.000000000         0.350000000         0.750000033
    -0.000000000         0.350000000         0.800000000
     0.000000000         0.350000000         0.850000033
    -0.000000000         0.350000000         0.900000000
    -0.000000000         0.350000000         0.949999967
     0.000000000         0.400000000         0.000000000
    -0.000000000         0.400000000         0.050000000
    -0.000000000         0.400000000         0.100000000
     0.000000000         0.400000000         0.150000000
     0.000000000         0.400000000         0.200000000
     0.000000000         0.400000000         0.250000000
     0.000000000         0.400000000         0.300000000
    -0.000000000         0.400000000         0.350000000
     0.000000000         0.400000000         0.400000000
    -0.000000000         0.400000000         0.450000000
    -0.000000000         0.400000000         0.500000000
     0.000000000         0.400000000         0.550000000
     0.000000000         0.400000000         0.600000000
    -0.000000000         0.400000000         0.649999967
     0.000000000         0.400000000         0.700000000
    -0.000000000         0.400000000         0.750000033
     0.000000000         0.400000000         0.800000000
    -0.000000000         0.400000000         0.850000033
    -0.000000000         0.400000000         0.900000000
     0.000000000         0.400000000         0.949999967
    -0.000000000         0.450000000         0.000000000
    -0.000000000         0.450000000         0.050000000
    -0.000000000         0.450000000         0.100000000
    -0.000000000         0.450000000         0.150000000
    -0.000000000         0.450000000         0.200000000
    -0.000000000         0.450000000         0.250000000
    -0.000000000         0.450000000         0.300000000
    -0.000000000         0.450000000         0.350000000
    -0.000000000         0.450000000         0.400000000
    -0.000000000         0.450000000         0.450000000
    -0.000000000         0.450000000         0.500000000
    -0.000000000         0.450000000         0.550000000
     0.000000000         0.450000000         0.600000000
    -0.000000000         0.450000000         0.649999967
    -0.000000000         0.450000000         0.700000000
    -0.000000000         0.450000000         0.750000033
    -0.000000000         0.450000000         0.800000000
    -0.000000000         0.450000000         0.850000033
    -0.000000000         0.450000000         0.900000000
    -0.000000000         0.450000000         0.949999967
    -0.000000000         0.500000000         0.000000000
     0.000000000         0.500000000         0.050000000
    -0.000000000         0.500000000         0.100000000
     0.000000000         0.500000000         0.150000000
    -0.000000000         0.500000000         0.200000000
    -0.000000000         0.500000000         0.250000000
     0.000000000         0.500000000         0.300000000
    -0.000000000         0.500000000         0.350000000
    -0.000000000         0.500000000         0.400000000
    -0.000000000         0.500000000         0.450000000
    -0.000000000         0.500000000         0.500000000
     0.000000000         0.500000000         0.550000000
     0.000000000         0.500000000         0.600000000
    -0.000000000         0.500000000         0.649999967
    -0.000000000         0.500000000         0.700000000
    -0.000000000         0.500000000         0.750000033
     0.000000000         0.500000000         0.800000000
    -0.000000000         0.500000000         0.850000033
    -0.000000000         0.500000000         0.900000000
    -0.000000000         0.500000000         0.949999967
     0.000000000         0.550000000         0.000000000
     0.000000000         0.550000000         0.050000000
     0.000000000         0.550000000         0.100000000
     0.000000000         0.550000000         0.150000000
    -0.000000000         0.550000000         0.200000000
     0.000000000         0.550000000         0.250000000
     0.000000000         0.550000000         0.300000000
    -0.000000000         0.550000000         0.350000000
     0.000000000         0.550000000         0.400000000
    -0.000000000         0.550000000         0.450000000
     0.000000000         0.550000000         0.500000000
     0.000000000         0.550000000         0.550000000
     0.000000000         0.550000000         0.600000000
    -0.000000000         0.550000000         0.649999967
    -0.000000000         0.550000000         0.700000000
    -0.000000000         0.550000000         0.750000033
     0.000000000         0.550000000         0.800000000
     0.000000000         0.550000000         0.850000033
    -0.000000000         0.550000000         0.900000000
     0.000000000         0.550000000         0.949999967
     0.000000000         0.600000000         0.000000000
     0.000000000         0.600000000         0.050000000
     0.000000000         0.600000000         0.100000000
     0.000000000         0.600000000         0.150000000
     0.000000000         0.600000000         0.200000000
     0.000000000         0.600000000         0.250000000
     0.000000000         0.600000000         0.300000000
     0.000000000         0.600000000         0.350000000
     0.000000000         0.600000000         0.400000000
     0.000000000         0.600000000         0.450000000
     0.000000000         0.600000000         0.500000000
     0.000000000         0.600000000         0.550000000
     0.000000000         0.600000000         0.600000000
     0.000000000         0.600000000         0.649999967
     0.000000000         0.600000000         0.700000000
    -0.000000000         0.600000000         0.750000033
     0.000000000         0.600000000         0.800000000
     0.000000000         0.600000000         0.850000033
    -0.000000000         0.600000000         0.900000000
     0.000000000         0.600000000         0.949999967
    -0.000000000         0.649999967         0.000000000
    -0.000000000         0.649999967         0.050000000
    -0.000000000         0.649999967         0.100000000
    -0.000000000         0.649999967         0.150000000
    -0.000000000         0.649999967         0.200000000
    -0.000000000         0.649999967         0.250000000
    -0.000000000         0.649999967         0.300000000
    -0.000000000         0.649999967         0.350000000
    -0.000000000         0.649999967         0.400000000
    -0.000000000         0.649999967         0.450000000
    -0.000000000         0.649999967         0.500000000
    -0.000000000         0.649999967         0.550000000
     0.000000000         0.649999967         0.600000000
    -0.000000000         0.649999967         0.649999967
    -0.000000000         0.649999967         0.700000000
    -0.000000000         0.649999967         0.750000033
    -0.000000000         0.649999967         0.800000000
    -0.000000000         0.649999967         0.850000033
    -0.000000000         0.649999967         0.900000000
    -0.000000000         0.649999967         0.949999967
    -0.000000000         0.700000000         0.000000000
    -0.000000000         0.700000000         0.050000000
    -0.000000000         0.700000000         0.100000000
    -0.000000000         0.700000000         0.150000000
    -0.000000000         0.700000000         0.200000000
    -0.000000000         0.700000000         0.250000000
    -0.000000000         0.700000000         0.300000000
    -0.000000000         0.700000000         0.350000000
     0.000000000         0.700000000         0.400000000
    -0.000000000         0.700000000         0.450000000
    -0.000000000         0.700000000         0.500000000
    -0.000000000         0.700000000         0.550000000
     0.000000000         0.700000000         0.600000000
    -0.000000000         0.700000000         0.649999967
    -0.000000000         0.700000000         0.700000000
    -0.000000000         0.700000000         0.750000033
    -0.000000000         0.700000000         0.800000000
    -0.000000000         0.700000000         0.850000033
    -0.000000000         0.700000000         0.900000000
    -0.000000000         0.700000000         0.949999967
    -0.000000000         0.750000033         0.000000000
    -0.000000000         0.750000033         0.050000000
    -0.000000000         0.750000033         0.100000000
    -0.000000000         0.750000033         0.150000000
    -0.000000000         0.750000033         0.200000000
    -0.000000000         0.750000033         0.250000000
    -0.000000000         0.750000033         0.300000000
    -0.000000000         0.750000033         0.350000000
    -0.000000000         0.750000033         0.400000000
    -0.000000000         0.750000033         0.450000000
    -0.000000000         0.750000033         0.500000000
    -0.000000000         0.750000033         0.550000000
    -0.000000000         0.750000033         0.600000000
    -0.000000000         0.750000033         0.649999967
    -0.000000000         0.750000033         0.700000000
    -0.000000000         0.750000033         0.750000033
    -0.000000000         0.750000033         0.800000000
    -0.000000000         0.750000033         0.850000033
    -0.000000000         0.750000033         0.900000000
    -0.000000000         0.750000033         0.949999967
     0.000000000         0.800000000         0.000000000
     0.000000000         0.800000000         0.050000000
    -0.000000000         0.800000000         0.100000000
     0.000000000         0.800000000         0.150000000
    -0.000000000         0.800000000         0.200000000
     0.000000000         0.800000000         0.250000000
     0.000000000         0.800000000         0.300000000
    -0.000000000         0.800000000         0.350000000
     0.000000000         0.800000000         0.400000000
    -0.000000000         0.800000000         0.450000000
     0.000000000         0.800000000         0.500000000
     0.000000000         0.800000000         0.550000000
     0.000000000         0.800000000         0.600000000
    -0.000000000         0.800000000         0.649999967
    -0.000000000         0.800000000         0.700000000
    -0.000000000         0.800000000         0.750000033
     0.000000000         0.800000000         0.800000000
     0.000000000         0.800000000         0.850000033
    -0.000000000         0.800000000         0.900000000
     0.000000000         0.800000000         0.949999967
     0.000000000         0.850000033         0.000000000
     0.000000000         0.850000033         0.050000000
    -0.000000000         0.850000033         0.100000000
     0.000000000         0.850000033         0.150000000
    -0.000000000         0.850000033         0.200000000
    -0.000000000         0.850000033         0.250000000
     0.000000000         0.850000033         0.300000000
     0.000000000         0.850000033         0.350000000
    -0.000000000         0.850000033         0.400000000
    -0.000000000         0.850000033         0.450000000
    -0.000000000         0.850000033         0.500000000
     0.000000000         0.850000033         0.550000000
     0.000000000         0.850000033         0.600000000
    -0.000000000         0.850000033         0.649999967
    -0.000000000         0.850000033         0.700000000
    -0.000000000         0.850000033         0.750000033
     0.000000000         0.850000033         0.800000000
     0.000000000         0.850000033         0.850000033
    -0.000000000         0.850000033         0.900000000
    -0.000000000         0.850000033         0.949999967
    -0.000000000         0.900000000         0.000000000
    -0.000000000         0.900000000         0.050000000
    -0.000000000         0.900000000         0.100000000
    -0.000000000         0.900000000         0.150000000
    -0.000000000         0.900000000         0.200000000
    -0.000000000         0.900000000         0.250000000
    -0.000000000         0.900000000         0.300000000
    -0.000000000         0.900000000         0.350000000
    -0.000000000         0.900000000         0.400000000
    -0.000000000         0.900000000         0.450000000
    -0.000000000         0.900000000         0.500000000
    -0.000000000         0.900000000         0.550000000
    -0.000000000         0.900000000         0.600000000
    -0.000000000         0.900000000         0.649999967
    -0.000000000         0.900000000         0.700000000
    -0.000000000         0.900000000         0.750000033
    -0.000000000         0.900000000         0.800000000
    -0.000000000         0.900000000         0.850000033
    -0.000000000         0.900000000         0.900000000
    -0.000000000         0.900000000         0.949999967
    -0.000000000         0.949999967         0.000000000
     0.000000000         0.949999967         0.050000000
     0.000000000         0.949999967         0.100000000
     0.000000000         0.949999967         0.150000000
    -0.000000000         0.949999967         0.200000000
    -0.000000000         0.949999967         0.250000000
     0.000000000         0.949999967         0.300000000
    -0.000000000         0.949999967         0.350000000
     0.000000000         0.949999967         0.400000000
    -0.000000000         0.949999967         0.450000000
    -0.000000000         0.949999967         0.500000000
     0.000000000         0.949999967         0.550000000
     0.000000000         0.949999967         0.600000000
    -0.000000000         0.949999967         0.649999967
    -0.000000000         0.949999967         0.700000000
    -0.000000000         0.949999967         0.750000033
     0.000000000         0.949999967         0.800000000
    -0.000000000         0.949999967         0.850000033
    -0.000000000         0.949999967         0.900000000
    -0.000000000         0.949999967         0.949999967
     0.050000000         0.000000000         0.000000000
     0.050000000         0.000000000         0.050000000
     0.050000000         0.000000000         0.100000000
     0.050000000         0.000000000         0.150000000
     0.050000000         0.000000000         0.200000000
     0.050000000        -0.000000000         0.250000000
     0.050000000         0.000000000         0.300000000
     0.050000000        -0.000000000         0.350000000
     0.050000000         0.000000000         0.400000000
     0.050000000        -0.000000000         0.450000000
     0.050000000        -0.000000000         0.500000000
     0.050000000         0.000000000         0.550000000
     0.050000000         0.000000000         0.600000000
     0.050000000        -0.000000000         0.649999967
     0.050000000        -0.000000000         0.700000000
     0.050000000        -0.000000000         0.750000033
     0.050000000         0.000000000         0.800000000
     0.050000000         0.000000000         0.850000033
     0.050000000        -0.000000000         0.900000000
     0.050000000        -0.000000000         0.949999967
     0.050000000         0.050000000         0.000000000
     0.050000000         0.050000000         0.050000000
     0.050000000         0.050000000         0.100000000
     0.050000000         0.050000000         0.150000000
     0.050000000         0.050000000         0.200000000
     0.050000000         0.050000000         0.250000000
     0.050000000         0.050000000         0.300000000
     0.050000000         0.050000000         0.350000000
     0.050000000         0.050000000         0.400000000
     0.050000000         0.050000000         0.450000000
     0.050000000         0.050000000         0.500000000
     0.050000000         0.050000000         0.550000000
     0.050000000         0.050000000         0.600000000
     0.050000000         0.050000000         0.649999967
     0.050000000         0.050000000         0.700000000
     0.050000000         0.050000000         0.750000033
     0.050000000         0.050000000         0.800000000
     0.050000000         0.050000000         0.850000033
     0.050000000         0.050000000         0.900000000
     0.050000000         0.050000000         0.949999967
     0.050000000         0.100000000         0.000000000
     0.050000000         0.100000000         0.050000000
     0.050000000         0.100000000         0.100000000
     0.050000000         0.100000000         0.150000000
     0.050000000         0.100000000         0.200000000
     0.050000000         0.100000000         0.250000000
     0.050000000         0.100000000         0.300000000
     0.050000000         0.100000000         0.350000000
     0.050000000         0.100000000         0.400000000
     0.050000000         0.100000000         0.450000000
     0.050000000         0.100000000         0.500000000
     0.050000000         0.100000000         0.550000000
     0.050000000         0.100000000         0.600000000
     0.050000000         0.100000000         0.649999967
     0.050000000         0.100000000         0.700000000
     0.050000000         0.100000000         0.750000033
     0.050000000         0.100000000         0.800000000
     0.050000000         0.100000000         0.850000033
     0.050000000         0.100000000         0.900000000
     0.050000000         0.100000000         0.949999967
     0.050000000         0.150000000         0.000000000
     0.050000000         0.150000000         0.050000000
     0.050000000         0.150000000         0.100000000
     0.050000000         0.150000000         0.150000000
     0.050000000         0.150000000         0.200000000
     0.050000000         0.150000000         0.250000000
     0.050000000         0.150000000         0.300000000
     0.050000000         0.150000000         0.350000000
     0.050000000         0.150000000         0.400000000
     0.050000000         0.150000000         0.450000000
     0.050000000         0.150000000         0.500000000
     0.050000000         0.150000000         0.550000000
     0.050000000         0.150000000         0.600000000
     0.050000000         0.150000000         0.649999967
     0.050000000         0.150000000         0.700000000
     0.050000000         0.150000000         0.750000033
     0.050000000         0.150000000         0.800000000
     0.050000000         0.150000000         0.850000033
     0.050000000         0.150000000         0.900000000
     0.050000000         0.150000000         0.949999967
     0.050000000         0.200000000         0.000000000
     0.050000000         0.200000000         0.050000000
     0.050000000         0.200000000         0.100000000
     0.050000000         0.200000000         0.150000000
     0.050000000         0.200000000         0.200000000
     0.050000000         0.200000000         0.250000000
     0.050000000         0.200000000         0.300000000
     0.050000000         0.200000000         0.350000000
     0.050000000         0.200000000         0.400000000
     0.050000000         0.200000000         0.450000000
     0.050000000         0.200000000         0.500000000
     0.050000000         0.200000000         0.550000000
     0.050000000         0.200000000         0.600000000
     0.050000000         0.200000000         0.649999967
     0.050000000         0.200000000         0.700000000
     0.050000000         0.200000000         0.750000033
     0.050000000         0.200000000         0.800000000
     0.050000000         0.200000000         0.850000033
     0.050000000         0.200000000         0.900000000
     0.050000000         0.200000000         0.949999967
     0.050000000         0.250000000         0.000000000
     0.050000000         0.250000000         0.050000000
     0.050000000         0.250000000         0.100000000
     0.050000000         0.250000000         0.150000000
     0.050000000         0.250000000         0.200000000
     0.050000000         0.250000000         0.250000000
     0.050000000         0.250000000         0.300000000
     0.050000000         0.250000000         0.350000000
     0.050000000         0.250000000         0.400000000
     0.050000000         0.250000000         0.450000000
     0.050000000         0.250000000         0.500000000
     0.050000000         0.250000000         0.550000000
     0.050000000         0.250000000         0.600000000
     0.050000000         0.250000000         0.649999967
     0.050000000         0.250000000         0.700000000
     0.050000000         0.250000000         0.750000033
     0.050000000         0.250000000         0.800000000
     0.050000000         0.250000000         0.850000033
     0.050000000         0.250000000         0.900000000
     0.050000000         0.250000000         0.949999967
     0.050000000         0.300000000         0.000000000
     0.050000000         0.300000000         0.050000000