pymatgen v2019.10.16 with grid density = 1374 / atom
0
Monkhorst
8 8 8
