pymatgen v2019.10.16 with grid density = 1561 / atom
0
Gamma
5 5 1
