Cr12 O18
1.0
5.031281 0.000000 0.000000
-2.515641 4.357217 0.000000
0.000000 0.000000 13.914028
Cr O
12 18
direct
0.333333 0.666667 0.318363 Cr
0.666667 0.333333 0.181637 Cr
0.333333 0.666667 0.014971 Cr
0.000000 0.000000 0.151696 Cr
0.000000 0.000000 0.651696 Cr
0.333333 0.666667 0.514971 Cr
0.000000 0.000000 0.348304 Cr
0.666667 0.333333 0.485029 Cr
0.666667 0.333333 0.985029 Cr
0.000000 0.000000 0.848304 Cr
0.666667 0.333333 0.681637 Cr
0.333333 0.666667 0.818363 Cr
0.303125 0.000000 0.250000 O
0.666667 0.030209 0.083333 O
0.363542 0.333333 0.083333 O
0.969791 0.636458 0.083333 O
0.000000 0.303125 0.250000 O
0.696875 0.696875 0.250000 O
0.969791 0.333333 0.583333 O
0.333333 0.363542 0.416667 O
0.030209 0.666667 0.416667 O
0.636458 0.969791 0.416667 O
0.666667 0.636458 0.583333 O
0.363542 0.030209 0.583333 O
0.636458 0.666667 0.916667 O
0.000000 0.696875 0.750000 O
0.696875 0.000000 0.750000 O
0.303125 0.303125 0.750000 O
0.333333 0.969791 0.916667 O
0.030209 0.363542 0.916667 O
