#initialization
echo                    screen
units                   metal
atom_style		charge
atom_modify		map array
boundary                p p p
atom_modify		sort 0 0.0


#simulation box definition
read_data              /share/home/yszhang/PBS/myExample/demo/single-neb/Cr2O3-Fe.data

group                   nebatoms id 1805 1819 1825 1829 1836 1844 1852 1861 1871 1875 1890 1930 1932 1935 1959 1964 1982 1992 1997 2003 2005 2006 2012 2022 2058 2061 2064 2068 2070 2071 2072 2085 2114 2120 2126 2135 2143 2144 2202 2216 2223 2244 2246 2266 2271 2275 2278 2291 2297 2304 2329 2337 2344 2360 2361 2383 2384 2390 2414 2420 2422 2426 2427 2433 2455 2482 2506 2541 2546 2557 2564 2572 2577 2579 2582 2583 2592 2618 2627 2635 2652 2656 2662 2672 2675 2683 2700 2704 2707 2727 2738 2740 2744 2745 2746 2747 2756 2761 2765 2774 2778 2802 2807 2815 2820 2829 2837 2866 2874 2882 2915 2918 2923 2933 2940 2943 2947 2953 2966 2977 2978 2982 2986 2989 2992 2996 3014 3019 3030 3088 3105 3109 3117 3119 3123 3129 3135 3141 3146 3148 3150 3191 3219 3226 3238 3247 3255 3265 3272 3323 3330 3335 3337 3358 3373 3381 3382 3416 3426 3430 3466 3481 3490 3496 3522 3524 3538 3546 3556 3561 3574 3586 3596 3603 3609 3613 3618 3634 3647 3648 3693 3709 3739 3753 3767 3775 3785 3793 3797

set                     type 1 charge 3
set                     type 2 charge 0
set                     type 3 charge -2

#potential
kspace_style            pppm 1.0e-4
pair_style              hybrid/overlay coul/long 10.0 buck 10.0 buck 10.0 eam/cd tersoff/zbl
pair_coeff              * * coul/long 
pair_coeff              1 3 buck 1 2362.905 0.270628 0.0
pair_coeff              3 3 buck 2 91.55955 0.547148 32.32                          
pair_coeff              * * eam/cd /share/home/yszhang/PBS/myExample/demo/single-neb/FeCr.cdeam Cr Fe NULL
pair_coeff              * * tersoff/zbl /share/home/yszhang/PBS/myExample/demo/single-neb/Fe-O.tersoff.zbl NULL Fe O

#setting
neighbor                5.0 bin
timestep                0.001

variable 		u uloop 20

dump			1 nebatoms custom 100 dump.neb.$u id type x y z

minimize                1.0e-12 1.0e-12 1000000 1000000
reset_timestep      	0

fix 			1 nebatoms neb 1.0

thermo			100

timestep                0.01

min_style               quickmin

neb                     0.0 0.01 100000 100000 100 final /share/home/yszhang/PBS/myExample/demo/single-neb/final.file

