# Lammps in file of Fe

echo                           screen
  
units													 metal
boundary											 p p p
atom_style										 atomic

read_data											 FeCr.data

#atom type 1 Fe
#atom type 2 Cr
pair_style										 eam/alloy
pair_coeff										 * * eam/cd FeCr.cdeam Fe Cr


neighbor	                     0.5 bin
neigh_modify									 every 1 check yes

fix														 1 all nve

thermo												 1

timestep											 0.01

dump				 									 1 all custom 1 dump_min.lammpstrj id type x y z
minimize											 1.0e-4 1.0e-6 10000 10000 

dump													 2 all custom 1 dump_run.lammpstrj id type x y z
run 													 100000